200
1000
300
299
298
298
297
297
294
291
290
289
288
288
286
285
283
282
280
279
277
276
275
274
274
272
272
271
271
269
269
268
268
267
267
267
265
265
264
263
262
262
259
259
256
253
253
251
249
249
248
246
246
245
244
242
241
238
237
237
236
235
233
233
232
229
229
228
228
228
228
227
227
226
225
224
223
223
221
220
220
219
218
218
218
217
214
212
209
207
205
204
203
202
202
201
200
199
198
196
195
193
193
192
190
190
189
187
187
187
186
186
185
185
185
184
183
182
182
182
181
181
181
181
180
178
177
177
175
175
174
174
174
173
173
172
170
170
168
168
167
166
164
162
161
160
160
159
156
155
151
150
150
149
149
148
148
148
145
143
140
138
136
134
133
133
132
131
131
130
129
129
128
126
125
124
124
121
120
120
118
116
115
115
114
114
113
112
111
111
110
110
110
109
108
107
107
107
105
104
103
102
